Route #1: 386 212 758 290 655 449 313 144 
Route #2: 866 667 51 625 729 796 927 854 
Route #3: 68 516 214 819 281 800 53 632 634 110 
Route #4: 14 61 845 101 173 82 106 610 247 
Route #5: 971 277 646 90 153 494 348 181 37 351 139 
Route #6: 650 773 767 129 114 505 921 613 105 
Route #7: 537 894 941 686 876 286 244 108 372 297 
Route #8: 487 743 559 802 695 589 201 706 541 
Route #9: 530 89 104 319 322 70 116 787 916 257 
Route #10: 142 713 540 986 93 967 21 283 712 
Route #11: 970 911 74 278 407 28 790 751 
Route #12: 618 626 799 656 783 132 223 635 694 65 877 
Route #13: 893 384 607 630 501 253 704 459 
Route #14: 527 697 775 299 235 455 461 753 687 478 
Route #15: 122 547 148 264 915 517 651 762 302 718 411 
Route #16: 726 213 932 532 489 117 26 721 898 844 
Distance: 38660
